
  22   10
  10   10   10   10   10   10   10   10   10   10

   0   0   0   0   0   0   0   0   0   0   0   4 2 3 10 18 
   5  10  10  10  10  10  10  10  10  10  10   2 21 4 
  10  10  10  10  10  10  10  10  10  10  10   2 21 6 
   5  10  10  10  10  10  10  10  10  10  10   1 5 
   8  10  10  10  10  10  10  10  10  10  10   1 6 
   4  10  10  10  10  10  10  10  10  10  10   1 7 
   4  10  10  10  10  10  10  10  10  10  10   1 8 
   1  10  10  10  10  10  10  10  10  10  10   1 9 
   7  10  10  10  10  10  10  10  10  10  10   1 11 
  10  10  10  10  10  10  10  10  10  10  10   1 11 
   1  10  10  10  10  10  10  10  10  10  10   2 16 12 
   1  10  10  10  10  10  10  10  10  10  10   2 20 13 
   3  10  10  10  10  10  10  10  10  10  10   1 14 
  10  10  10  10  10  10  10  10  10  10  10   1 15 
   4  10  10  10  10  10  10  10  10  10  10   1 17 
   9  10  10  10  10  10  10  10  10  10  10   1 17 
   8  10  10  10  10  10  10  10  10  10  10   1 19 
   8  10  10  10  10  10  10  10  10  10  10   1 19 
   4  10  10  10  10  10  10  10  10  10  10   1 22
  10  10  10  10  10  10  10  10  10  10  10   1 22
   6  10  10  10  10  10  10  10  10  10  10   1 22
   0   0   0   0   0   0   0   0   0   0   0   0 
